p cnf 14 20
14 13 -9 0
-14 6 5 0
14 -3 2 0
13 11 6 0
-13 10 5 0
13 -10 -1 0
-12 10 -9 0
12 -10 -6 0
-12 -7 -3 0
-11 10 7 0
-11 9 -2 0
10 6 2 0
-10 2 1 0
-9 -8 1 0
8 7 3 0
-8 -7 -2 0
7 5 1 0
7 -2 1 0
7 2 1 0
-5 3 2 0
